Maximize
  0.4922436088127496 Z_320_0_0 + 0.00483139467731173 Z_320_0_1
   + 0.0117212676276223 Z_320_0_2 + 0.2023706081125475 Z_320_0_3
   + 0.1888331207697689 Z_320_0_4 + 0.00441572243509013 Z_320_1_0
   + 0.00487878260192656 Z_320_1_1 + 0.8362282756398358 Z_320_1_2
   + 0.00567890910307214 Z_320_1_3 + 0.0487983102200754 Z_320_1_4
   + 0.00425055273386608 Z_57_0_0 + 0.8479269022284702 Z_57_0_1
   + 0.00454778456115966 Z_57_0_2 + 0.0090078838937038 Z_57_0_3
   + 0.0342668765828004 Z_57_0_4 + 0.00567067978342512 Z_687_0_0
   + 0.0228036749354691 Z_687_0_1 + 0.0248290421276987 Z_687_0_2
   + 0.2338856155602977 Z_687_0_3 + 0.6128109875931096 Z_687_0_4
   + 0.00117705823981746 Z_387_0_0 + 0.7787397354344193 Z_387_0_1
   + 0.00438646581464083 Z_387_0_2 + 0.00184514432545573 Z_387_0_3
   + 0.1138515961856666 Z_387_0_4 + 0.0133722529522441 Z_79_1_0
   + 0.0108722632333331 Z_79_1_1 + 0.4046492023301537 Z_79_1_2
   + 0.000447315 Z_79_1_3 + 0.4706589665760846 Z_79_1_4
   + 0.00270226168091137 Z_79_0_0 + 0.00944178985019764 Z_79_0_1
   + 0.3155014657968144 Z_79_0_2 + 0.00173548476419935 Z_79_0_3
   + 0.5706189979078773 Z_79_0_4 + 0.0907068987318706 Z_79_2_0
   + 0.140317315039615 Z_79_2_1 + 0.00930017076773626 Z_79_2_2
   + 0.0946663362346949 Z_79_2_3 + 0.5650092792260835 Z_79_2_4
   + 2.62268e-05 Z_79_9_0 + 0.00271593505403044 Z_79_9_1
   + 0.8646687950152283 Z_79_9_2 + 0.0040827683285147 Z_79_9_3
   + 0.0285062748457887 Z_79_9_4 + 0.0125572300684922 Z_0_1_0
   + 0.0272433011007063 Z_0_1_1 + 0.00841956058701913 Z_0_1_2
   + 0.00579375227226319 Z_0_1_3 + 0.8459861559715192 Z_0_1_4
   + 0.0658054258369676 Z_0_0_0 + 0.0644688659375088 Z_0_0_1
   + 0.2831724908054425 Z_0_0_2 + 0.0145713787438745 Z_0_0_3
   + 0.4719818386762067 Z_0_0_4 + 2.3710740528264272e-04 Z_0_6_0
   + 0.00463647053253081 Z_0_6_1 + 0.8612984350419466 Z_0_6_2
   + 0.00343374648743421 Z_0_6_3 + 0.0303942405328058 Z_0_6_4
   + 0.00205637805494857 Z_22_0_0 + 0.0469897682561206 Z_22_0_1
   + 0.00226948773826298 Z_22_0_2 + 0.5511936667823392 Z_22_0_3
   + 0.2974906991683288 Z_22_0_4 + 0.687562304517072 Z_259_0_0
   + 0.0148365863590023 Z_259_0_1 + 0.00212094157467022 Z_259_0_2
   + 0.0911260707776678 Z_259_0_3 + 0.1043540967715878 Z_259_0_4
   + 0.00589844154039785 Z_509_0_0 + 0.0355918234512177 Z_509_0_1
   + 0.7331840986829 Z_509_0_2 + 0.0165547778689067 Z_509_0_3
   + 0.1087708584565776 Z_509_0_4 + 0.00132605671063099 Z_722_2_0
   + 0.00406308308952765 Z_722_2_1 + 0.6352686130073514 Z_722_2_2
   + 0.0039955273756754 Z_722_2_3 + 0.2553467198168146 Z_722_2_4
   + 0.0265080144785859 Z_722_4_0 + 0.1301203335689757 Z_722_4_1
   + 0.0210783709808243 Z_722_4_2 + 0.5293712517627791 Z_722_4_3
   + 0.1929220292088348 Z_722_4_4 + 0.0199257732936247 Z_722_0_0
   + 0.2058565858901475 Z_722_0_1 + 0.0204166405957343 Z_722_0_2
   + 0.0716975099433693 Z_722_0_3 + 0.5821034902771245 Z_722_0_4
   + 0.0199257732936247 Z_722_3_0 + 0.2058565858901475 Z_722_3_1
   + 0.0204166405957343 Z_722_3_2 + 0.0716975099433693 Z_722_3_3
   + 0.5821034902771245 Z_722_3_4 + 0.00132605671063099 Z_722_1_0
   + 0.00406308308952765 Z_722_1_1 + 0.6352686130073514 Z_722_1_2
   + 0.0039955273756754 Z_722_1_3 + 0.2553467198168146 Z_722_1_4
   + 0.0755239433945304 Z_722_5_0 + 0.0206310136047045 Z_722_5_1
   + 0.0276907877620092 Z_722_5_2 + 0.0331097869326529 Z_722_5_3
   + 0.7430444683061029 Z_722_5_4 + 0.0260164118905932 Z_697_0_0
   + 0.0194117484507893 Z_697_0_1 + 0.00523434958537781 Z_697_0_2
   + 0.8052885581989486 Z_697_0_3 + 0.044048931874291 Z_697_0_4
   + 0.0241026105822587 Z_283_0_0 + 0.0184855159057874 Z_283_0_1
   + 0.00598890878174483 Z_283_0_2 + 0.7997119145024489 Z_283_0_3
   + 0.0517110502277602 Z_283_0_4
Subject To
 constraint1_3200: Z_320_0_0 + Z_320_0_1 + Z_320_0_2 + Z_320_0_3
   + Z_320_0_4 <= 1
 constraint1_3201: Z_320_1_0 + Z_320_1_1 + Z_320_1_2 + Z_320_1_3
   + Z_320_1_4 <= 1
 constraint1_570: Z_57_0_0 + Z_57_0_1 + Z_57_0_2 + Z_57_0_3 + Z_57_0_4
   <= 1
 constraint1_6870: Z_687_0_0 + Z_687_0_1 + Z_687_0_2 + Z_687_0_3
   + Z_687_0_4 <= 1
 constraint1_3870: Z_387_0_0 + Z_387_0_1 + Z_387_0_2 + Z_387_0_3
   + Z_387_0_4 <= 1
 constraint1_791: Z_79_1_0 + Z_79_1_1 + Z_79_1_2 + Z_79_1_3 + Z_79_1_4
   <= 1
 constraint1_790: Z_79_0_0 + Z_79_0_1 + Z_79_0_2 + Z_79_0_3 + Z_79_0_4
   <= 1
 constraint1_792: Z_79_2_0 + Z_79_2_1 + Z_79_2_2 + Z_79_2_3 + Z_79_2_4
   <= 1
 constraint1_799: Z_79_9_0 + Z_79_9_1 + Z_79_9_2 + Z_79_9_3 + Z_79_9_4
   <= 1
 constraint1_01: Z_0_1_0 + Z_0_1_1 + Z_0_1_2 + Z_0_1_3 + Z_0_1_4 <= 1
 constraint1_00: Z_0_0_0 + Z_0_0_1 + Z_0_0_2 + Z_0_0_3 + Z_0_0_4 <= 1
 constraint1_06: Z_0_6_0 + Z_0_6_1 + Z_0_6_2 + Z_0_6_3 + Z_0_6_4 <= 1
 constraint1_220: Z_22_0_0 + Z_22_0_1 + Z_22_0_2 + Z_22_0_3 + Z_22_0_4
   <= 1
 constraint1_2590: Z_259_0_0 + Z_259_0_1 + Z_259_0_2 + Z_259_0_3
   + Z_259_0_4 <= 1
 constraint1_5090: Z_509_0_0 + Z_509_0_1 + Z_509_0_2 + Z_509_0_3
   + Z_509_0_4 <= 1
 constraint1_7222: Z_722_2_0 + Z_722_2_1 + Z_722_2_2 + Z_722_2_3
   + Z_722_2_4 <= 1
 constraint1_7224: Z_722_4_0 + Z_722_4_1 + Z_722_4_2 + Z_722_4_3
   + Z_722_4_4 <= 1
 constraint1_7220: Z_722_0_0 + Z_722_0_1 + Z_722_0_2 + Z_722_0_3
   + Z_722_0_4 <= 1
 constraint1_7223: Z_722_3_0 + Z_722_3_1 + Z_722_3_2 + Z_722_3_3
   + Z_722_3_4 <= 1
 constraint1_7221: Z_722_1_0 + Z_722_1_1 + Z_722_1_2 + Z_722_1_3
   + Z_722_1_4 <= 1
 constraint1_7225: Z_722_5_0 + Z_722_5_1 + Z_722_5_2 + Z_722_5_3
   + Z_722_5_4 <= 1
 constraint1_6970: Z_697_0_0 + Z_697_0_1 + Z_697_0_2 + Z_697_0_3
   + Z_697_0_4 <= 1
 constraint1_2830: Z_283_0_0 + Z_283_0_1 + Z_283_0_2 + Z_283_0_3
   + Z_283_0_4 <= 1
 constraint2_3200: Z_320_0_0 + Z_320_1_0 <= 1
 constraint2_3201: Z_320_0_1 + Z_320_1_1 <= 1
 constraint2_3202: Z_320_0_2 + Z_320_1_2 <= 1
 constraint2_3203: Z_320_0_3 + Z_320_1_3 <= 1
 constraint2_570: Z_57_0_0 <= 1
 constraint2_571: Z_57_0_1 <= 1
 constraint2_572: Z_57_0_2 <= 1
 constraint2_573: Z_57_0_3 <= 1
 constraint2_5820: <= 1
 constraint2_5821: <= 1
 constraint2_5822: <= 1
 constraint2_5823: <= 1
 constraint2_6870: Z_687_0_0 <= 1
 constraint2_6871: Z_687_0_1 <= 1
 constraint2_6872: Z_687_0_2 <= 1
 constraint2_6873: Z_687_0_3 <= 1
 constraint2_3870: Z_387_0_0 <= 1
 constraint2_3871: Z_387_0_1 <= 1
 constraint2_3872: Z_387_0_2 <= 1
 constraint2_3873: Z_387_0_3 <= 1
 constraint2_510: <= 1
 constraint2_511: <= 1
 constraint2_512: <= 1
 constraint2_513: <= 1
 constraint2_790: Z_79_1_0 + Z_79_0_0 + Z_79_2_0 + Z_79_9_0 <= 1
 constraint2_791: Z_79_1_1 + Z_79_0_1 + Z_79_2_1 + Z_79_9_1 <= 1
 constraint2_792: Z_79_1_2 + Z_79_0_2 + Z_79_2_2 + Z_79_9_2 <= 1
 constraint2_793: Z_79_1_3 + Z_79_0_3 + Z_79_2_3 + Z_79_9_3 <= 1
 constraint2_00: Z_0_1_0 + Z_0_0_0 + Z_0_6_0 <= 1
 constraint2_01: Z_0_1_1 + Z_0_0_1 + Z_0_6_1 <= 1
 constraint2_02: Z_0_1_2 + Z_0_0_2 + Z_0_6_2 <= 1
 constraint2_03: Z_0_1_3 + Z_0_0_3 + Z_0_6_3 <= 1
 constraint2_220: Z_22_0_0 <= 1
 constraint2_221: Z_22_0_1 <= 1
 constraint2_222: Z_22_0_2 <= 1
 constraint2_223: Z_22_0_3 <= 1
 constraint2_4170: <= 1
 constraint2_4171: <= 1
 constraint2_4172: <= 1
 constraint2_4173: <= 1
 constraint2_2590: Z_259_0_0 <= 1
 constraint2_2591: Z_259_0_1 <= 1
 constraint2_2592: Z_259_0_2 <= 1
 constraint2_2593: Z_259_0_3 <= 1
 constraint2_5090: Z_509_0_0 <= 1
 constraint2_5091: Z_509_0_1 <= 1
 constraint2_5092: Z_509_0_2 <= 1
 constraint2_5093: Z_509_0_3 <= 1
 constraint2_4960: <= 1
 constraint2_4961: <= 1
 constraint2_4962: <= 1
 constraint2_4963: <= 1
 constraint2_7220: Z_722_2_0 + Z_722_4_0 + Z_722_0_0 + Z_722_3_0
   + Z_722_1_0 + Z_722_5_0 <= 1
 constraint2_7221: Z_722_2_1 + Z_722_4_1 + Z_722_0_1 + Z_722_3_1
   + Z_722_1_1 + Z_722_5_1 <= 1
 constraint2_7222: Z_722_2_2 + Z_722_4_2 + Z_722_0_2 + Z_722_3_2
   + Z_722_1_2 + Z_722_5_2 <= 1
 constraint2_7223: Z_722_2_3 + Z_722_4_3 + Z_722_0_3 + Z_722_3_3
   + Z_722_1_3 + Z_722_5_3 <= 1
 constraint2_6970: Z_697_0_0 <= 1
 constraint2_6971: Z_697_0_1 <= 1
 constraint2_6972: Z_697_0_2 <= 1
 constraint2_6973: Z_697_0_3 <= 1
 constraint2_2830: Z_283_0_0 <= 1
 constraint2_2831: Z_283_0_1 <= 1
 constraint2_2832: Z_283_0_2 <= 1
 constraint2_2833: Z_283_0_3 <= 1
Bounds
Binaries
 Z_320_0_0 Z_320_0_1 Z_320_0_2 Z_320_0_3 Z_320_0_4 Z_320_1_0 Z_320_1_1
 Z_320_1_2 Z_320_1_3 Z_320_1_4 Z_57_0_0 Z_57_0_1 Z_57_0_2 Z_57_0_3 Z_57_0_4
 Z_687_0_0 Z_687_0_1 Z_687_0_2 Z_687_0_3 Z_687_0_4 Z_387_0_0 Z_387_0_1
 Z_387_0_2 Z_387_0_3 Z_387_0_4 Z_79_1_0 Z_79_1_1 Z_79_1_2 Z_79_1_3 Z_79_1_4
 Z_79_0_0 Z_79_0_1 Z_79_0_2 Z_79_0_3 Z_79_0_4 Z_79_2_0 Z_79_2_1 Z_79_2_2
 Z_79_2_3 Z_79_2_4 Z_79_9_0 Z_79_9_1 Z_79_9_2 Z_79_9_3 Z_79_9_4 Z_0_1_0
 Z_0_1_1 Z_0_1_2 Z_0_1_3 Z_0_1_4 Z_0_0_0 Z_0_0_1 Z_0_0_2 Z_0_0_3 Z_0_0_4
 Z_0_6_0 Z_0_6_1 Z_0_6_2 Z_0_6_3 Z_0_6_4 Z_22_0_0 Z_22_0_1 Z_22_0_2
 Z_22_0_3 Z_22_0_4 Z_259_0_0 Z_259_0_1 Z_259_0_2 Z_259_0_3 Z_259_0_4
 Z_509_0_0 Z_509_0_1 Z_509_0_2 Z_509_0_3 Z_509_0_4 Z_722_2_0 Z_722_2_1
 Z_722_2_2 Z_722_2_3 Z_722_2_4 Z_722_4_0 Z_722_4_1 Z_722_4_2 Z_722_4_3
 Z_722_4_4 Z_722_0_0 Z_722_0_1 Z_722_0_2 Z_722_0_3 Z_722_0_4 Z_722_3_0
 Z_722_3_1 Z_722_3_2 Z_722_3_3 Z_722_3_4 Z_722_1_0 Z_722_1_1 Z_722_1_2
 Z_722_1_3 Z_722_1_4 Z_722_5_0 Z_722_5_1 Z_722_5_2 Z_722_5_3 Z_722_5_4
 Z_697_0_0 Z_697_0_1 Z_697_0_2 Z_697_0_3 Z_697_0_4 Z_283_0_0 Z_283_0_1
 Z_283_0_2 Z_283_0_3 Z_283_0_4
End
